(set-logic QF_S)
(declare-fun var0 () String)
(declare-fun var1 () String)
(declare-fun var2 () String)
(assert (= (Concat "9F(" (Concat var0 (Concat var1 var2))) (Concat (Concat var0 (Concat var1 var2)) "+aS")))
(check-sat)